row=8;
column=8;
Board = [|-1, -1, 2, -1, -1, 2, -1, 1|1, -1, -1, -1, 2, 2, -1, 2|-1, 1, -1, 1, -1, 1, -1, -1|1, -1, -1, -1, -1, -1, 4, -1|1, 2, 2, -1, 4, -1, -1, 3|1, -1, -1, 2, -1, -1, -1, 2|-1, -1, 3, 3, 5, -1, 6, -1|1, 1, 2, -1, 3, -1, -1, -1|]